qbf_easy_train/easy_4734_UNSAT.qdimacs
p cnf 32 88
a 3 7 23 0
e 1 2 4 5 6 8 9 10 11 12 13 14 15 16 17 18 19 20 21 22 24 25 26 27 28 29 30 31 32 0
4 2 0
4 3 0
-2 -3 -4 0
5 -1 0
5 4 0
1 -4 -5 0
-8 6 0
-8 -7 0
-6 7 8 0
-10 -8 0
-10 9 0
8 -9 10 0
10 -2 -11 0
-10 2 -11 0
10 2 11 0
-10 -2 11 0
-12 -11 0
-12 -10 0
11 10 12 0
-13 -2 0
-13 6 0
2 -6 13 0
-14 13 0
-14 -2 0
-13 2 14 0
2 3 -15 0
-2 -3 -15 0
2 -3 15 0
-2 3 15 0
-14 15 -16 0
14 -15 -16 0
-14 -15 16 0
14 15 16 0
-17 12 0
-17 -16 0
-12 16 17 0
18 5 0
18 -17 0
-5 17 -18 0
20 3 0
20 19 0
-3 -19 -20 0
21 10 0
21 -20 0
-10 20 -21 0
-6 21 -22 0
6 -21 -22 0
-6 -21 22 0
6 21 22 0
-23 -2 0
-23 4 0
2 -4 23 0
24 -22 0
24 -23 0
22 23 -24 0
-18 -24 -25 0
18 24 -25 0
-18 24 25 0
18 -24 25 0
-11 -10 -26 0
11 10 -26 0
-11 10 26 0
11 -10 26 0
27 26 0
27 -3 0
-26 3 -27 0
28 -7 0
28 21 0
7 -21 -28 0
-30 -28 0
-30 29 0
28 -29 30 0
-27 30 -31 0
27 -30 -31 0
-27 -30 31 0
27 30 31 0
-32 25 0
-32 -31 0
-25 31 32 0
-18 25 -10 -8 6 13 0
10 24 26 -15 1 2 0
31 10 16 -26 -7 -24 0
-21 28 23 17 27 -3 -6 0
11 7 -20 -21 -4 -29 19 0
-11 14 31 22 -12 13 0
-18 28 25 6 8 13 0
4 29 -32 -16 10 30 0
32 0
