sat_easy_train/easy_4734_UNSAT.dimacs
p cnf 132 445
1 2 -3 0
-1 -2 -3 0
1 -2 3 0
-1 2 3 0
-6 4 0
-6 -5 0
-4 5 6 0
9 7 0
9 8 0
-7 -8 -9 0
-9 -10 0
9 -10 0
-6 -10 -11 0
6 10 -11 0
-6 10 11 0
6 -10 11 0
-7 2 -12 0
7 -2 -12 0
-7 -2 12 0
7 2 12 0
12 8 -13 0
-12 -8 -13 0
12 -8 13 0
-12 8 13 0
14 11 0
14 -13 0
-11 13 -14 0
-2 -15 -16 0
2 15 -16 0
-2 15 16 0
2 -15 16 0
-16 -17 -18 0
16 17 -18 0
-16 17 18 0
16 -17 18 0
-16 -2 -19 0
16 2 -19 0
-16 2 19 0
16 -2 19 0
-20 -7 0
-20 -19 0
7 19 20 0
22 20 0
22 -21 0
-20 21 -22 0
12 22 -23 0
-12 -22 -23 0
12 -22 23 0
-12 22 23 0
18 23 -24 0
-18 -23 -24 0
18 -23 24 0
-18 23 24 0
-14 -24 -25 0
14 24 -25 0
-14 24 25 0
14 -24 25 0
-27 -8 0
-27 26 0
8 -26 27 0
-25 27 -28 0
25 -27 -28 0
-25 -27 28 0
25 27 28 0
3 -28 -29 0
-3 28 -29 0
3 28 29 0
-3 -28 29 0
-32 -30 0
-32 31 0
30 -31 32 0
32 1 -33 0
-32 -1 -33 0
32 -1 33 0
-32 1 33 0
-34 29 0
-34 33 0
-29 -33 34 0
-36 30 0
-36 -35 0
-30 35 36 0
37 -9 0
37 -36 0
9 36 -37 0
-38 -11 0
-38 -37 0
11 37 38 0
39 -34 0
39 -38 0
34 38 -39 0
-30 -17 -40 0
30 17 -40 0
-30 17 40 0
30 -17 40 0
41 32 0
41 40 0
-32 -40 -41 0
42 37 0
42 -26 0
-37 26 -42 0
-43 20 0
-43 -42 0
-20 42 43 0
-44 18 0
-44 -43 0
-18 43 44 0
-32 -21 -45 0
32 21 -45 0
-32 21 45 0
32 -21 45 0
44 -45 -46 0
-44 45 -46 0
44 45 46 0
-44 -45 46 0
47 41 0
47 -46 0
-41 46 -47 0
-48 39 0
-48 -47 0
-39 47 48 0
-49 4 0
-49 -36 0
-4 36 49 0
-50 32 0
-50 -5 0
-32 5 50 0
51 -49 0
51 -50 0
49 50 -51 0
-48 -51 -52 0
48 51 -52 0
-48 51 52 0
48 -51 52 0
-26 -40 -53 0
26 40 -53 0
-26 40 53 0
26 -40 53 0
-54 -50 0
-54 53 0
50 -53 54 0
55 -52 0
55 54 0
52 -54 -55 0
-56 -1 0
-56 53 0
1 -53 56 0
57 35 0
57 -56 0
-35 56 -57 0
-42 -1 -58 0
42 1 -58 0
-42 1 58 0
42 -1 58 0
-59 -37 0
-59 -58 0
37 58 59 0
60 57 0
60 -59 0
-57 59 -60 0
-21 26 -61 0
21 -26 -61 0
-21 -26 61 0
21 26 61 0
-62 17 0
-62 -61 0
-17 61 62 0
-63 62 0
-63 -17 0
-62 17 63 0
-64 35 0
-64 63 0
-35 -63 64 0
65 60 0
65 -64 0
-60 64 -65 0
-66 12 0
-66 15 0
-12 -15 66 0
-66 -4 -67 0
66 4 -67 0
-66 4 67 0
66 -4 67 0
68 -67 0
68 -20 0
67 20 -68 0
70 5 0
70 -69 0
-5 69 -70 0
71 -70 0
71 -12 0
70 12 -71 0
-68 71 -72 0
68 -71 -72 0
-68 -71 72 0
68 71 72 0
21 6 -73 0
-21 -6 -73 0
21 -6 73 0
-21 6 73 0
74 -59 0
74 73 0
59 -73 -74 0
22 -74 -75 0
-22 74 -75 0
22 74 75 0
-22 -74 75 0
-76 -72 0
-76 75 0
72 -75 76 0
77 7 0
77 35 0
-7 -35 -77 0
8 7 -78 0
-8 -7 -78 0
8 -7 78 0
-8 7 78 0
-77 78 -79 0
77 -78 -79 0
-77 -78 79 0
77 78 79 0
80 -76 0
80 79 0
76 -79 -80 0
-82 1 0
-82 -81 0
-1 81 82 0
-83 80 0
-83 82 0
-80 -82 83 0
-84 65 0
-84 -83 0
-65 83 84 0
85 -19 0
85 53 0
19 -53 -85 0
-86 -85 0
-86 15 0
85 -15 86 0
-87 42 0
-87 -5 0
-42 5 87 0
-88 87 0
-88 -5 0
-87 5 88 0
86 88 -89 0
-86 -88 -89 0
86 -88 89 0
-86 88 89 0
-90 -12 0
-90 49 0
12 -49 90 0
91 18 0
91 90 0
-18 -90 -91 0
89 -91 -92 0
-89 91 -92 0
89 91 92 0
-89 -91 92 0
-93 84 0
-93 92 0
-84 -92 93 0
-94 -9 0
-94 9 0
-95 49 0
-95 31 0
-49 -31 95 0
26 9 -96 0
-26 -9 -96 0
26 -9 96 0
-26 9 96 0
-19 96 -97 0
19 -96 -97 0
-19 -96 97 0
19 96 97 0
-98 95 0
-98 -97 0
-95 97 98 0
30 -99 0
-30 -99 0
-100 -77 0
-100 -99 0
77 99 100 0
-101 -12 0
-101 -100 0
12 100 101 0
102 -23 0
102 -101 0
23 101 -102 0
-103 68 0
-103 68 0
-68 103 0
-61 -103 -104 0
61 103 -104 0
-61 103 104 0
61 -103 104 0
-102 -104 -105 0
102 104 -105 0
-102 104 105 0
102 -104 105 0
-98 105 -106 0
98 -105 -106 0
-98 -105 106 0
98 105 106 0
26 101 -107 0
-26 -101 -107 0
26 -101 107 0
-26 101 107 0
108 81 0
108 11 0
-81 -11 -108 0
-107 -108 -109 0
107 108 -109 0
-107 108 109 0
107 -108 109 0
-110 -100 0
-110 85 0
100 -85 110 0
111 -109 0
111 -110 0
109 110 -111 0
-113 -36 0
-113 -5 0
36 5 113 0
114 113 0
114 68 0
-113 -68 -114 0
112 -114 -115 0
-112 114 -115 0
112 114 115 0
-112 -114 115 0
116 111 0
116 -115 0
-111 115 -116 0
117 -71 0
117 9 0
71 -9 -117 0
-118 6 0
-118 -117 0
-6 117 118 0
119 -116 0
119 -118 0
116 118 -119 0
-120 106 0
-120 -119 0
-106 119 120 0
-121 -94 0
-121 -120 0
94 120 121 0
122 -21 0
122 2 0
21 -2 -122 0
2 4 -123 0
-2 -4 -123 0
2 -4 123 0
-2 4 123 0
23 123 -124 0
-23 -123 -124 0
23 -123 124 0
-23 123 124 0
-125 9 0
-125 30 0
-9 -30 125 0
126 -124 0
126 -125 0
124 125 -126 0
127 122 0
127 -126 0
-122 126 -127 0
128 -121 0
128 -127 0
121 127 -128 0
-93 128 -129 0
93 -128 -129 0
-93 -128 129 0
93 128 129 0
-130 -16 0
-130 -9 0
16 9 130 0
-129 130 -131 0
129 -130 -131 0
-129 -130 131 0
129 130 131 0
55 131 -132 0
-55 -131 -132 0
55 -131 132 0
-55 131 132 0
-114 80 19 -56 -99 117 0
39 46 -75 0
-34 63 -9 -88 -73 0
91 30 40 116 0
75 -128 -11 -100 -94 0
104 60 0
-79 -116 -112 -58 0
116 121 56 0
-46 -42 0
47 45 105 108 0
-3 -8 0
-31 -3 45 0
74 67 -112 0
8 120 -44 48 -76 0
-110 122 21 61 2 0
-65 -91 0
24 108 120 88 104 0
83 74 -113 13 87 0
17 -11 -110 0
-55 63 51 0
99 -24 -74 -19 56 0
-56 -82 -85 93 0
76 34 -72 -38 -93 55 0
63 75 -57 -72 112 -118 0
-120 7 0
35 -9 -113 -99 2 -27 0
51 16 -21 0
-125 -121 112 12 0
82 46 -27 -13 0
61 -43 -38 109 17 0
-19 23 3 34 87 0
87 39 -27 78 84 0
-58 -24 -73 34 122 -97 0
27 9 -128 0
122 -49 -26 0
130 4 48 129 0
-51 -77 29 -116 0
-49 13 11 0
50 32 -69 3 -101 -23 0
61 -77 -124 -100 -120 0
85 -116 13 19 0
11 56 18 44 -130 0
75 3 112 -37 49 0
7 -16 -76 53 -58 6 0
59 -100 0
75 -131 -50 115 -69 0
-130 -118 114 120 -85 -62 0
18 47 0
-10 -117 33 -79 -128 0
-13 -4 -125 31 18 20 0
3 -54 0
-3 112 0
106 124 104 -27 -40 -24 0
-76 -18 -126 -33 51 -88 0
-3 -53 0
-109 -113 -120 -16 47 0
22 93 -104 19 -43 0
-33 82 40 76 0
132 0
